147
10000
3103
240
2653
825
236
48
3222
1236
795
1489
206
2041
650
2851
1506
2638
65
1184
4900
2269
1158
2360
2748
4205
2646
472
413
557
449
1046
62
2938
1079
948
1606
384
4105
3001
736
1379
14
4162
2467
754
1818
3427
4371
4788
2386
3289
4125
3354
1768
3020
466
2763
2432
371
2688
4857
3171
576
2879
1018
941
3184
1995
2818
2339
1112
529
701
816
80
4858
4262
904
1461
3079
1629
2855
1037
744
2441
2579
53
2625
1610
206
4235
46
2384
3
2241
539
376
1651
1797
2162
820
586
4261
1965
2235
1646
4399
1125
1630
923
1802
3122
3141
2022
3543
1839
4148
1566
4734
3324
4544
3163
396
1599
100
2098
2176
3273
1050
3101
1983
2766
4544
1543
2714
1815
4551
130
2619
86
4078
1357
1370
4564
2257
2796
4186
605
